ampl_outputs/A-n10-k4-m1-b4ampl_.txt.out
Gurobi 12.0.1:   lim:time = 500
  mip:bestbound = 1
Set parameter LogToConsole to value 1
  tech:outlev = 1
Set parameter InfUnbdInfo to value 1
Gurobi Optimizer version 12.0.1 build v12.0.1rc0 (win64 - Windows 11.0 (26100.2))

CPU model: Intel(R) Core(TM) i7-10700 CPU @ 2.90GHz, instruction set [SSE2|AVX|AVX2]
Thread count: 8 physical cores, 16 logical processors, using up to 16 threads

Non-default parameters:
TimeLimit  500
InfUnbdInfo  1

Optimize a model with 413 rows, 950 columns and 4757 nonzeros
Model fingerprint: 0x6320206d
Model has 1 quadratic objective term
Model has 6 quadratic constraints
Variable types: 30 continuous, 920 integer (0 binary)
Coefficient statistics:
  Matrix range     [1e+00, 1e+05]
  QMatrix range    [1e+00, 1e+00]
  QLMatrix range   [1e+00, 2e+01]
  Objective range  [1e+01, 3e+02]
  QObjective range [2e+00, 2e+00]
  Bounds range     [1e+00, 1e+02]
  RHS range        [1e+00, 1e+05]
  QRHS range       [1e+02, 1e+02]
Presolve removed 24 rows and 70 columns
Presolve time: 0.03s
Presolved: 793 rows, 1280 columns, 6395 nonzeros
Variable types: 17 continuous, 1263 integer (1148 binary)
Found heuristic solution: objective 2278.9500000

Root relaxation: objective 5.675938e+02, 67 iterations, 0.00 seconds (0.00 work units)

    Nodes    |    Current Node    |     Objective Bounds      |     Work
 Expl Unexpl |  Obj  Depth IntInf | Incumbent    BestBd   Gap | It/Node Time

     0     0  567.59382    0   23 2278.95000  567.59382  75.1%     -    0s
H    0     0                    1555.2500000  567.59382  63.5%     -    0s
H    0     0                    1115.5900000  567.59382  49.1%     -    0s
     0     0  721.74426    0   21 1115.59000  721.74426  35.3%     -    0s
     0     0  726.63000    0   21 1115.59000  726.63000  34.9%     -    0s
     0     0  726.63000    0   20 1115.59000  726.63000  34.9%     -    0s
     0     0  726.63000    0   23 1115.59000  726.63000  34.9%     -    0s
     0     0  726.63000    0   18 1115.59000  726.63000  34.9%     -    0s
     0     2  726.63000    0   18 1115.59000  726.63000  34.9%     -    0s
H   41    64                    1026.2800000  726.69643  29.2%  22.3    0s
H  186   149                    1006.3600000  726.82259  27.8%  13.2    0s
H  458   277                    1001.6300000  726.91767  27.4%  11.2    0s

Cutting planes:
  Learned: 11
  Gomory: 13
  Cover: 4
  Implied bound: 45
  MIR: 2
  GUB cover: 1
  Inf proof: 13
  Zero half: 9
  RLT: 19

Explored 3927 nodes (43031 simplex iterations) in 0.58 seconds (0.79 work units)
Thread count was 16 (of 16 available processors)

Solution count 6: 1001.63 1006.36 1026.28 ... 2278.95

Optimal solution found (tolerance 1.00e-04)
Best objective 1.001630000000e+03, best bound 1.001630000000e+03, gap 0.0000%

AMPL MP initial flat model has 950 variables (0 integer, 920 binary);
Objectives: 1 quadratic; 
Constraints:  413 linear; 6 quadratic;

AMPL MP final model has 950 variables (0 integer, 920 binary);
Objectives: 1 quadratic; 
Constraints:  413 linear; 6 quadratic;


-----RESULTS INFO-----
running_time:  0.657
TC.best_bound:  1001.63
TC:  1001.6299999999999
MIP Gap (%):  1.1350182973914123e-14
=== Vehicle Routes ===
Vehicle 1: 0 → 4
Vehicle 1: 1 → 21
Vehicle 1: 2 → 3
Vehicle 1: 3 → 8
Vehicle 1: 4 → 14
Vehicle 1: 8 → 16
Vehicle 1: 14 → 2
Vehicle 1: 16 → 1
Vehicle 2: 0 → 11
Vehicle 2: 11 → 21
Vehicle 3: 0 → 21
Vehicle 4: 0 → 21

=== Full Vehicle Routes ===
Vehicle 1: 0 → 4 → 14 → 2 → 3 → 8 → 16 → 1 → 0 (90<100)
Vehicle 2: 0 → 11 → 0 (23<100)
Vehicle 3: 0 → 0 (0<100)
Vehicle 4: 0 → 0 (0<100)
Arc used by MRT line: y variables:
MRT used: 11 → 12
Customer assigment to PL: u variables:
5 12
6 16
7 14
9 12
10 12
Node is served by regular vehicle: g variables:
1
2
3
4
8
11
14
16
Customer assigment to Home delivery: gm variables:
1
2
3
4
8
Node total demands: ntd variables:
1 19 1
2 24 1
3 4 1
4 8 1
8 12 1
9 0 0
10 0 0
17 0 0
18 0 0
19 0 0
20 0 0
11 23 1
12 0 0
13 0 0
14 2 1
15 0 0
16 21 1
Customer's demand delivered to PL: l variables:
5
6
7
9
10
